&control
 calculation  = 'scf'
 restart_mode = 'from_scratch'
 pseudo_dir   = '/Users/marco/Work/WEST_PROJECT/QE_BEFORE_RELEASE/pseudo/'
 outdir       = '/Users/marco/Work/WEST_PROJECT/QE_BEFORE_RELEASE/tempdir/'
 prefix       = 'h2o'
 wf_collect   = .TRUE.
/
&system
 ibrav=1, 
 celldm(1) =13.d0, 
 nat=3, 
 ntyp=2,
 ecutwfc = 85.d0, 
 nbnd=16,
 nosym=.true.
/
&electrons
 conv_thr = 1.d-12
 diago_full_acc = .TRUE.
/
ATOMIC_SPECIES
H   1.00794  H.pbe-vbc.UPF
O   15.9994  O.pbe-mt.UPF
ATOMIC_POSITIONS {angstrom}
O       0.0000  0.0000   0.1173
H       0.0000  0.7572  -0.4692
H       0.0000 -0.7572  -0.4692
K_POINTS {gamma}
